22	4
22	15	16	17
0	0	0	0	0	4	3	5	2	4
10	10	2	3	9	1	8
8	7	9	8	8	1	10
4	10	6	2	3	2	9	18
3	7	3	2	7	1	6
7	6	6	7	2	1	7
8	2	8	2	7	1	15
8	2	5	5	9	3	12	13	15
1	9	0	0	7	1	17
2	10	2	9	1	2	11	13
7	6	7	6	6	3	12	17	18
3	7	4	6	2	1	22
5	5	5	8	1	2	14	17
2	0	0	0	7	1	21
6	8	6	8	9	2	16	17
8	10	3	2	2	1	18
3	6	11	10	8	1	22
1	6	10	8	1	2	19	21
7	6	10	8	8	1	20
1	9	0	0	2	1	22
8	4	4	6	2	1	22
0	0	0	0	0	0
